;; sat

(declare-const x1 sl.list.loc)
(declare-const x2 sl.list.loc)
(declare-const x3 sl.list.loc)
(declare-const x4 sl.list.loc)
(declare-const x5 sl.list.loc)
(declare-const x6 sl.list.loc)
(declare-const x7 sl.list.loc)
(declare-const x8 sl.list.loc)
(declare-const x9 sl.list.loc)
(declare-const x10 sl.list.loc)
(declare-const x11 sl.list.loc)
(declare-const x12 sl.list.loc)
(declare-const x13 sl.list.loc)
(declare-const x14 sl.list.loc)
(declare-const x15 sl.list.loc)
(declare-const x16 sl.list.loc)
(declare-const x17 sl.list.loc)
(declare-const x18 sl.list.loc)
(declare-const x19 sl.list.loc)
(declare-const x20 sl.list.loc)

(assert (and (sl.sepcon (sl.list.eq sl.list.null sl.list.null)
 (sl.sepcon (sl.sepcon (sl.sepcon (sl.sepcon (sl.sepcon (sl.sepcon (sl.sepcon (sl.sepcon (sl.sepcon (sl.sepcon (sl.sepcon (sl.sepcon (sl.sepcon (sl.sepcon (sl.sepcon (sl.sepcon (sl.sepcon (sl.sepcon (sl.sepcon (sl.list.next x1 x19)
 (sl.list.seg x9 x6)
)
 (sl.list.next x17 x3)
)
 (sl.list.seg x8 x4)
)
 (sl.list.next x5 x20)
)
 (sl.list.next x4 x8)
)
 (sl.list.next x13 x11)
)
 (sl.list.next x16 x17)
)
 (sl.list.next x3 x11)
)
 (sl.list.next x15 x3)
)
 (sl.list.next x20 x18)
)
 (sl.list.next x18 x12)
)
 (sl.list.seg x14 x11)
)
 (sl.list.next x2 x10)
)
 (sl.list.seg x7 x10)
)
 (sl.list.next x10 x5)
)
 (sl.list.next x6 x7)
)
 (sl.list.seg x12 x19)
)
 (sl.list.seg x19 x15)
)
 (sl.list.next x11 x20)
)
)
 (not (sl.sepcon (sl.sepcon (sl.sepcon (sl.sepcon (sl.sepcon (sl.sepcon (sl.sepcon (sl.sepcon (sl.list.seg x16 x17)
 (sl.list.seg x2 x10)
)
 (sl.list.seg x1 x19)
)
 (sl.list.seg x14 x11)
)
 (sl.list.seg x17 x3)
)
 (sl.list.seg x4 x8)
)
 (sl.list.seg x13 x20)
)
 (sl.list.seg x8 x4)
)
 (sl.list.seg x9 x11)
)
))
)

